c 
c G(k,n,p) graph
c graph gen seed     : 1023
c number of vertices : 25
c max number of edges: 500
c number of classes  : 2
c edge density       : 0.600000
c edge probability   : 1.200000
c data structure     : dense
c
c           Graph Stats
c number of vertices  : 25
c nonisolated vertices: 25
c number of edges     : 156
c edge density        : 0.520000
c max degree          : 13
c avg degree          : 12.48
c min degree          : 12
p col 25 156
e 1 2
e 1 3
e 1 4
e 1 7
e 1 8
e 1 12
e 1 16
e 1 19
e 1 20
e 1 21
e 1 25
e 2 3
e 2 4
e 2 7
e 2 8
e 2 12
e 2 16
e 2 19
e 2 20
e 2 21
e 2 25
e 3 4
e 3 7
e 3 8
e 3 12
e 3 16
e 3 19
e 3 20
e 3 21
e 3 25
e 4 7
e 4 8
e 4 12
e 4 16
e 4 19
e 4 20
e 4 21
e 4 25
e 5 6
e 5 9
e 5 10
e 5 11
e 5 13
e 5 14
e 5 15
e 5 17
e 5 18
e 5 22
e 5 23
e 5 24
e 6 9
e 6 10
e 6 11
e 6 13
e 6 14
e 6 15
e 6 17
e 6 18
e 6 22
e 6 23
e 6 24
e 7 8
e 7 12
e 7 16
e 7 19
e 7 20
e 7 21
e 7 25
e 8 12
e 8 16
e 8 19
e 8 20
e 8 21
e 8 25
e 9 10
e 9 11
e 9 13
e 9 14
e 9 15
e 9 17
e 9 18
e 9 22
e 9 23
e 9 24
e 10 11
e 10 13
e 10 14
e 10 15
e 10 17
e 10 18
e 10 22
e 10 23
e 10 24
e 11 13
e 11 14
e 11 15
e 11 17
e 11 18
e 11 22
e 11 23
e 11 24
e 12 16
e 12 19
e 12 20
e 12 21
e 12 25
e 13 14
e 13 15
e 13 17
e 13 18
e 13 22
e 13 23
e 13 24
e 14 15
e 14 17
e 14 18
e 14 22
e 14 23
e 14 24
e 15 17
e 15 18
e 15 22
e 15 23
e 15 24
e 16 19
e 16 20
e 16 21
e 16 25
e 17 18
e 17 22
e 17 23
e 17 24
e 18 22
e 18 23
e 18 24
e 19 20
e 19 21
e 19 25
e 20 21
e 20 25
e 21 25
e 22 23
e 22 24
e 23 24
